c File: flat100_3_0.col
c
c SOURCE: Joseph Culberson (joe@cs.ualberta.ca)
c DESCRIPTION: Quasi-random coloring problem
c              generated with flatness = 0
c                             probability = 0.072
c                             known coloring = 3
c                             random seed = 1047
c              Creation Date:  Thu Jun  4 18:55:48 1998
c Maximum degree = 8 Minimum degree = 1
c p edge 100 239
c cnf created by edge2cnf
p cnf 300 1117
-1 -2 0
-1 -3 0
-2 -3 0
1 2 3 0
-4 -5 0
-4 -6 0
-5 -6 0
4 5 6 0
-7 -8 0
-7 -9 0
-8 -9 0
7 8 9 0
-10 -11 0
-10 -12 0
-11 -12 0
10 11 12 0
-13 -14 0
-13 -15 0
-14 -15 0
13 14 15 0
-16 -17 0
-16 -18 0
-17 -18 0
16 17 18 0
-19 -20 0
-19 -21 0
-20 -21 0
19 20 21 0
-22 -23 0
-22 -24 0
-23 -24 0
22 23 24 0
-25 -26 0
-25 -27 0
-26 -27 0
25 26 27 0
-28 -29 0
-28 -30 0
-29 -30 0
28 29 30 0
-31 -32 0
-31 -33 0
-32 -33 0
31 32 33 0
-34 -35 0
-34 -36 0
-35 -36 0
34 35 36 0
-37 -38 0
-37 -39 0
-38 -39 0
37 38 39 0
-40 -41 0
-40 -42 0
-41 -42 0
40 41 42 0
-43 -44 0
-43 -45 0
-44 -45 0
43 44 45 0
-46 -47 0
-46 -48 0
-47 -48 0
46 47 48 0
-49 -50 0
-49 -51 0
-50 -51 0
49 50 51 0
-52 -53 0
-52 -54 0
-53 -54 0
52 53 54 0
-55 -56 0
-55 -57 0
-56 -57 0
55 56 57 0
-58 -59 0
-58 -60 0
-59 -60 0
58 59 60 0
-61 -62 0
-61 -63 0
-62 -63 0
61 62 63 0
-64 -65 0
-64 -66 0
-65 -66 0
64 65 66 0
-67 -68 0
-67 -69 0
-68 -69 0
67 68 69 0
-70 -71 0
-70 -72 0
-71 -72 0
70 71 72 0
-73 -74 0
-73 -75 0
-74 -75 0
73 74 75 0
-76 -77 0
-76 -78 0
-77 -78 0
76 77 78 0
-79 -80 0
-79 -81 0
-80 -81 0
79 80 81 0
-82 -83 0
-82 -84 0
-83 -84 0
82 83 84 0
-85 -86 0
-85 -87 0
-86 -87 0
85 86 87 0
-88 -89 0
-88 -90 0
-89 -90 0
88 89 90 0
-91 -92 0
-91 -93 0
-92 -93 0
91 92 93 0
-94 -95 0
-94 -96 0
-95 -96 0
94 95 96 0
-97 -98 0
-97 -99 0
-98 -99 0
97 98 99 0
-100 -101 0
-100 -102 0
-101 -102 0
100 101 102 0
-103 -104 0
-103 -105 0
-104 -105 0
103 104 105 0
-106 -107 0
-106 -108 0
-107 -108 0
106 107 108 0
-109 -110 0
-109 -111 0
-110 -111 0
109 110 111 0
-112 -113 0
-112 -114 0
-113 -114 0
112 113 114 0
-115 -116 0
-115 -117 0
-116 -117 0
115 116 117 0
-118 -119 0
-118 -120 0
-119 -120 0
118 119 120 0
-121 -122 0
-121 -123 0
-122 -123 0
121 122 123 0
-124 -125 0
-124 -126 0
-125 -126 0
124 125 126 0
-127 -128 0
-127 -129 0
-128 -129 0
127 128 129 0
-130 -131 0
-130 -132 0
-131 -132 0
130 131 132 0
-133 -134 0
-133 -135 0
-134 -135 0
133 134 135 0
-136 -137 0
-136 -138 0
-137 -138 0
136 137 138 0
-139 -140 0
-139 -141 0
-140 -141 0
139 140 141 0
-142 -143 0
-142 -144 0
-143 -144 0
142 143 144 0
-145 -146 0
-145 -147 0
-146 -147 0
145 146 147 0
-148 -149 0
-148 -150 0
-149 -150 0
148 149 150 0
-151 -152 0
-151 -153 0
-152 -153 0
151 152 153 0
-154 -155 0
-154 -156 0
-155 -156 0
154 155 156 0
-157 -158 0
-157 -159 0
-158 -159 0
157 158 159 0
-160 -161 0
-160 -162 0
-161 -162 0
160 161 162 0
-163 -164 0
-163 -165 0
-164 -165 0
163 164 165 0
-166 -167 0
-166 -168 0
-167 -168 0
166 167 168 0
-169 -170 0
-169 -171 0
-170 -171 0
169 170 171 0
-172 -173 0
-172 -174 0
-173 -174 0
172 173 174 0
-175 -176 0
-175 -177 0
-176 -177 0
175 176 177 0
-178 -179 0
-178 -180 0
-179 -180 0
178 179 180 0
-181 -182 0
-181 -183 0
-182 -183 0
181 182 183 0
-184 -185 0
-184 -186 0
-185 -186 0
184 185 186 0
-187 -188 0
-187 -189 0
-188 -189 0
187 188 189 0
-190 -191 0
-190 -192 0
-191 -192 0
190 191 192 0
-193 -194 0
-193 -195 0
-194 -195 0
193 194 195 0
-196 -197 0
-196 -198 0
-197 -198 0
196 197 198 0
-199 -200 0
-199 -201 0
-200 -201 0
199 200 201 0
-202 -203 0
-202 -204 0
-203 -204 0
202 203 204 0
-205 -206 0
-205 -207 0
-206 -207 0
205 206 207 0
-208 -209 0
-208 -210 0
-209 -210 0
208 209 210 0
-211 -212 0
-211 -213 0
-212 -213 0
211 212 213 0
-214 -215 0
-214 -216 0
-215 -216 0
214 215 216 0
-217 -218 0
-217 -219 0
-218 -219 0
217 218 219 0
-220 -221 0
-220 -222 0
-221 -222 0
220 221 222 0
-223 -224 0
-223 -225 0
-224 -225 0
223 224 225 0
-226 -227 0
-226 -228 0
-227 -228 0
226 227 228 0
-229 -230 0
-229 -231 0
-230 -231 0
229 230 231 0
-232 -233 0
-232 -234 0
-233 -234 0
232 233 234 0
-235 -236 0
-235 -237 0
-236 -237 0
235 236 237 0
-238 -239 0
-238 -240 0
-239 -240 0
238 239 240 0
-241 -242 0
-241 -243 0
-242 -243 0
241 242 243 0
-244 -245 0
-244 -246 0
-245 -246 0
244 245 246 0
-247 -248 0
-247 -249 0
-248 -249 0
247 248 249 0
-250 -251 0
-250 -252 0
-251 -252 0
250 251 252 0
-253 -254 0
-253 -255 0
-254 -255 0
253 254 255 0
-256 -257 0
-256 -258 0
-257 -258 0
256 257 258 0
-259 -260 0
-259 -261 0
-260 -261 0
259 260 261 0
-262 -263 0
-262 -264 0
-263 -264 0
262 263 264 0
-265 -266 0
-265 -267 0
-266 -267 0
265 266 267 0
-268 -269 0
-268 -270 0
-269 -270 0
268 269 270 0
-271 -272 0
-271 -273 0
-272 -273 0
271 272 273 0
-274 -275 0
-274 -276 0
-275 -276 0
274 275 276 0
-277 -278 0
-277 -279 0
-278 -279 0
277 278 279 0
-280 -281 0
-280 -282 0
-281 -282 0
280 281 282 0
-283 -284 0
-283 -285 0
-284 -285 0
283 284 285 0
-286 -287 0
-286 -288 0
-287 -288 0
286 287 288 0
-289 -290 0
-289 -291 0
-290 -291 0
289 290 291 0
-292 -293 0
-292 -294 0
-293 -294 0
292 293 294 0
-295 -296 0
-295 -297 0
-296 -297 0
295 296 297 0
-298 -299 0
-298 -300 0
-299 -300 0
298 299 300 0
-109 -1 0
-110 -2 0
-111 -3 0
-130 -1 0
-131 -2 0
-132 -3 0
-157 -1 0
-158 -2 0
-159 -3 0
-160 -1 0
-161 -2 0
-162 -3 0
-211 -1 0
-212 -2 0
-213 -3 0
-226 -1 0
-227 -2 0
-228 -3 0
-112 -4 0
-113 -5 0
-114 -6 0
-163 -4 0
-164 -5 0
-165 -6 0
-196 -4 0
-197 -5 0
-198 -6 0
-226 -4 0
-227 -5 0
-228 -6 0
-286 -4 0
-287 -5 0
-288 -6 0
-142 -7 0
-143 -8 0
-144 -9 0
-214 -7 0
-215 -8 0
-216 -9 0
-223 -7 0
-224 -8 0
-225 -9 0
-265 -7 0
-266 -8 0
-267 -9 0
-280 -7 0
-281 -8 0
-282 -9 0
-142 -10 0
-143 -11 0
-144 -12 0
-169 -10 0
-170 -11 0
-171 -12 0
-184 -10 0
-185 -11 0
-186 -12 0
-196 -10 0
-197 -11 0
-198 -12 0
-274 -10 0
-275 -11 0
-276 -12 0
-286 -10 0
-287 -11 0
-288 -12 0
-127 -13 0
-128 -14 0
-129 -15 0
-166 -13 0
-167 -14 0
-168 -15 0
-184 -13 0
-185 -14 0
-186 -15 0
-259 -13 0
-260 -14 0
-261 -15 0
-277 -13 0
-278 -14 0
-279 -15 0
-106 -16 0
-107 -17 0
-108 -18 0
-112 -16 0
-113 -17 0
-114 -18 0
-115 -16 0
-116 -17 0
-117 -18 0
-184 -16 0
-185 -17 0
-186 -18 0
-232 -16 0
-233 -17 0
-234 -18 0
-268 -16 0
-269 -17 0
-270 -18 0
-292 -16 0
-293 -17 0
-294 -18 0
-145 -19 0
-146 -20 0
-147 -21 0
-157 -19 0
-158 -20 0
-159 -21 0
-217 -19 0
-218 -20 0
-219 -21 0
-265 -19 0
-266 -20 0
-267 -21 0
-295 -19 0
-296 -20 0
-297 -21 0
-298 -19 0
-299 -20 0
-300 -21 0
-112 -22 0
-113 -23 0
-114 -24 0
-181 -22 0
-182 -23 0
-183 -24 0
-217 -22 0
-218 -23 0
-219 -24 0
-247 -22 0
-248 -23 0
-249 -24 0
-265 -22 0
-266 -23 0
-267 -24 0
-289 -22 0
-290 -23 0
-291 -24 0
-109 -25 0
-110 -26 0
-111 -27 0
-115 -25 0
-116 -26 0
-117 -27 0
-121 -25 0
-122 -26 0
-123 -27 0
-181 -25 0
-182 -26 0
-183 -27 0
-208 -25 0
-209 -26 0
-210 -27 0
-223 -25 0
-224 -26 0
-225 -27 0
-226 -25 0
-227 -26 0
-228 -27 0
-166 -28 0
-167 -29 0
-168 -30 0
-196 -28 0
-197 -29 0
-198 -30 0
-250 -28 0
-251 -29 0
-252 -30 0
-106 -31 0
-107 -32 0
-108 -33 0
-211 -31 0
-212 -32 0
-213 -33 0
-232 -31 0
-233 -32 0
-234 -33 0
-133 -34 0
-134 -35 0
-135 -36 0
-148 -34 0
-149 -35 0
-150 -36 0
-172 -34 0
-173 -35 0
-174 -36 0
-184 -34 0
-185 -35 0
-186 -36 0
-223 -34 0
-224 -35 0
-225 -36 0
-238 -34 0
-239 -35 0
-240 -36 0
-259 -34 0
-260 -35 0
-261 -36 0
-277 -34 0
-278 -35 0
-279 -36 0
-271 -37 0
-272 -38 0
-273 -39 0
-109 -40 0
-110 -41 0
-111 -42 0
-124 -40 0
-125 -41 0
-126 -42 0
-151 -40 0
-152 -41 0
-153 -42 0
-157 -40 0
-158 -41 0
-159 -42 0
-286 -40 0
-287 -41 0
-288 -42 0
-298 -40 0
-299 -41 0
-300 -42 0
-124 -43 0
-125 -44 0
-126 -45 0
-133 -43 0
-134 -44 0
-135 -45 0
-169 -43 0
-170 -44 0
-171 -45 0
-145 -46 0
-146 -47 0
-147 -48 0
-160 -46 0
-161 -47 0
-162 -48 0
-247 -46 0
-248 -47 0
-249 -48 0
-115 -49 0
-116 -50 0
-117 -51 0
-118 -49 0
-119 -50 0
-120 -51 0
-130 -49 0
-131 -50 0
-132 -51 0
-175 -49 0
-176 -50 0
-177 -51 0
-211 -49 0
-212 -50 0
-213 -51 0
-241 -49 0
-242 -50 0
-243 -51 0
-250 -49 0
-251 -50 0
-252 -51 0
-262 -49 0
-263 -50 0
-264 -51 0
-181 -52 0
-182 -53 0
-183 -54 0
-199 -52 0
-200 -53 0
-201 -54 0
-205 -52 0
-206 -53 0
-207 -54 0
-283 -52 0
-284 -53 0
-285 -54 0
-214 -55 0
-215 -56 0
-216 -57 0
-220 -55 0
-221 -56 0
-222 -57 0
-274 -55 0
-275 -56 0
-276 -57 0
-172 -58 0
-173 -59 0
-174 -60 0
-181 -58 0
-182 -59 0
-183 -60 0
-205 -58 0
-206 -59 0
-207 -60 0
-268 -58 0
-269 -59 0
-270 -60 0
-106 -61 0
-107 -62 0
-108 -63 0
-112 -61 0
-113 -62 0
-114 -63 0
-202 -61 0
-203 -62 0
-204 -63 0
-232 -61 0
-233 -62 0
-234 -63 0
-235 -61 0
-236 -62 0
-237 -63 0
-241 -61 0
-242 -62 0
-243 -63 0
-205 -64 0
-206 -65 0
-207 -66 0
-235 -64 0
-236 -65 0
-237 -66 0
-241 -64 0
-242 -65 0
-243 -66 0
-247 -64 0
-248 -65 0
-249 -66 0
-166 -67 0
-167 -68 0
-168 -69 0
-175 -67 0
-176 -68 0
-177 -69 0
-238 -67 0
-239 -68 0
-240 -69 0
-103 -70 0
-104 -71 0
-105 -72 0
-106 -70 0
-107 -71 0
-108 -72 0
-154 -70 0
-155 -71 0
-156 -72 0
-187 -70 0
-188 -71 0
-189 -72 0
-202 -70 0
-203 -71 0
-204 -72 0
-250 -70 0
-251 -71 0
-252 -72 0
-277 -70 0
-278 -71 0
-279 -72 0
-289 -70 0
-290 -71 0
-291 -72 0
-142 -73 0
-143 -74 0
-144 -75 0
-277 -73 0
-278 -74 0
-279 -75 0
-151 -76 0
-152 -77 0
-153 -78 0
-163 -76 0
-164 -77 0
-165 -78 0
-211 -76 0
-212 -77 0
-213 -78 0
-289 -76 0
-290 -77 0
-291 -78 0
-295 -76 0
-296 -77 0
-297 -78 0
-133 -79 0
-134 -80 0
-135 -81 0
-154 -79 0
-155 -80 0
-156 -81 0
-163 -79 0
-164 -80 0
-165 -81 0
-190 -79 0
-191 -80 0
-192 -81 0
-226 -79 0
-227 -80 0
-228 -81 0
-262 -79 0
-263 -80 0
-264 -81 0
-193 -82 0
-194 -83 0
-195 -84 0
-205 -82 0
-206 -83 0
-207 -84 0
-292 -82 0
-293 -83 0
-294 -84 0
-142 -85 0
-143 -86 0
-144 -87 0
-148 -85 0
-149 -86 0
-150 -87 0
-154 -85 0
-155 -86 0
-156 -87 0
-115 -88 0
-116 -89 0
-117 -90 0
-190 -88 0
-191 -89 0
-192 -90 0
-232 -88 0
-233 -89 0
-234 -90 0
-298 -88 0
-299 -89 0
-300 -90 0
-130 -91 0
-131 -92 0
-132 -93 0
-145 -91 0
-146 -92 0
-147 -93 0
-163 -91 0
-164 -92 0
-165 -93 0
-196 -91 0
-197 -92 0
-198 -93 0
-223 -91 0
-224 -92 0
-225 -93 0
-262 -91 0
-263 -92 0
-264 -93 0
-274 -91 0
-275 -92 0
-276 -93 0
-175 -94 0
-176 -95 0
-177 -96 0
-220 -94 0
-221 -95 0
-222 -96 0
-235 -94 0
-236 -95 0
-237 -96 0
-241 -94 0
-242 -95 0
-243 -96 0
-220 -97 0
-221 -98 0
-222 -99 0
-262 -97 0
-263 -98 0
-264 -99 0
-295 -97 0
-296 -98 0
-297 -99 0
-118 -100 0
-119 -101 0
-120 -102 0
-130 -100 0
-131 -101 0
-132 -102 0
-133 -100 0
-134 -101 0
-135 -102 0
-157 -100 0
-158 -101 0
-159 -102 0
-205 -103 0
-206 -104 0
-207 -105 0
-253 -103 0
-254 -104 0
-255 -105 0
-274 -103 0
-275 -104 0
-276 -105 0
-205 -106 0
-206 -107 0
-207 -108 0
-244 -106 0
-245 -107 0
-246 -108 0
-256 -106 0
-257 -107 0
-258 -108 0
-250 -109 0
-251 -110 0
-252 -111 0
-208 -112 0
-209 -113 0
-210 -114 0
-244 -112 0
-245 -113 0
-246 -114 0
-214 -115 0
-215 -116 0
-216 -117 0
-223 -115 0
-224 -116 0
-225 -117 0
-247 -115 0
-248 -116 0
-249 -117 0
-268 -115 0
-269 -116 0
-270 -117 0
-229 -118 0
-230 -119 0
-231 -120 0
-208 -121 0
-209 -122 0
-210 -123 0
-217 -121 0
-218 -122 0
-219 -123 0
-223 -121 0
-224 -122 0
-225 -123 0
-238 -121 0
-239 -122 0
-240 -123 0
-232 -127 0
-233 -128 0
-234 -129 0
-259 -127 0
-260 -128 0
-261 -129 0
-259 -130 0
-260 -131 0
-261 -132 0
-277 -130 0
-278 -131 0
-279 -132 0
-220 -133 0
-221 -134 0
-222 -135 0
-250 -133 0
-251 -134 0
-252 -135 0
-274 -133 0
-275 -134 0
-276 -135 0
-211 -136 0
-212 -137 0
-213 -138 0
-232 -136 0
-233 -137 0
-234 -138 0
-241 -136 0
-242 -137 0
-243 -138 0
-283 -136 0
-284 -137 0
-285 -138 0
-259 -139 0
-260 -140 0
-261 -141 0
-286 -139 0
-287 -140 0
-288 -141 0
-202 -142 0
-203 -143 0
-204 -144 0
-250 -142 0
-251 -143 0
-252 -144 0
-280 -142 0
-281 -143 0
-282 -144 0
-232 -145 0
-233 -146 0
-234 -147 0
-244 -145 0
-245 -146 0
-246 -147 0
-259 -145 0
-260 -146 0
-261 -147 0
-226 -148 0
-227 -149 0
-228 -150 0
-271 -148 0
-272 -149 0
-273 -150 0
-298 -148 0
-299 -149 0
-300 -150 0
-223 -151 0
-224 -152 0
-225 -153 0
-229 -151 0
-230 -152 0
-231 -153 0
-265 -151 0
-266 -152 0
-267 -153 0
-289 -151 0
-290 -152 0
-291 -153 0
-247 -154 0
-248 -155 0
-249 -156 0
-283 -154 0
-284 -155 0
-285 -156 0
-286 -154 0
-287 -155 0
-288 -156 0
-286 -157 0
-287 -158 0
-288 -159 0
-289 -157 0
-290 -158 0
-291 -159 0
-220 -160 0
-221 -161 0
-222 -162 0
-286 -160 0
-287 -161 0
-288 -162 0
-238 -163 0
-239 -164 0
-240 -165 0
-280 -163 0
-281 -164 0
-282 -165 0
-292 -163 0
-293 -164 0
-294 -165 0
-298 -163 0
-299 -164 0
-300 -165 0
-238 -166 0
-239 -167 0
-240 -168 0
-247 -166 0
-248 -167 0
-249 -168 0
-265 -166 0
-266 -167 0
-267 -168 0
-226 -169 0
-227 -170 0
-228 -171 0
-262 -169 0
-263 -170 0
-264 -171 0
-277 -169 0
-278 -170 0
-279 -171 0
-280 -172 0
-281 -173 0
-282 -174 0
-202 -175 0
-203 -176 0
-204 -177 0
-202 -178 0
-203 -179 0
-204 -180 0
-223 -178 0
-224 -179 0
-225 -180 0
-262 -178 0
-263 -179 0
-264 -180 0
-283 -178 0
-284 -179 0
-285 -180 0
-277 -181 0
-278 -182 0
-279 -183 0
-289 -181 0
-290 -182 0
-291 -183 0
-232 -184 0
-233 -185 0
-234 -186 0
-229 -187 0
-230 -188 0
-231 -189 0
-280 -190 0
-281 -191 0
-282 -192 0
-214 -193 0
-215 -194 0
-216 -195 0
-217 -193 0
-218 -194 0
-219 -195 0
-277 -193 0
-278 -194 0
-279 -195 0
-289 -196 0
-290 -197 0
-291 -198 0
-211 -199 0
-212 -200 0
-213 -201 0
-229 -199 0
-230 -200 0
-231 -201 0
